NAME: Random_60_2
ELLAPSED_TIME_(ms): 1
TOUR_SIZE: 1576.0137
TOUR_SECTION
0
28
15
13
5
16
7
8
10
53
14
36
37
2
35
48
55
32
1
41
50
34
39
57
40
56
4
18
23
42
22
59
30
44
3
51
25
45
38
54
58
6
12
24
20
11
26
19
27
52
17
21
29
47
9
46
33
31
43
49
0
EOF
